% Generated by MiniZinc 2.9.3
% Solver library: /home/icwmmarijnisse/Pumpkin/minizinc/lib
% Command line invocation: minizinc --compile --fzn ./instance.fzn --ozn ./instance.ozn --solver pumpkin ../../../../benchmarks/models/rcpsp/rcpsp_smaller.mzn ../../../../benchmarks/models/rcpsp/st103_14.dzn 

predicate pumpkin_cumulative(array [int] of var int: s,array [int] of int: d,array [int] of int: r,int: b);
predicate pumpkin_disjunctive_strict(array [int] of var int: s,array [int] of int: d);
array [1..2] of int: X_INTRODUCED_120_ = [1,-1];
var 0..336: X_INTRODUCED_16_;
var 0..336: X_INTRODUCED_17_;
var 0..336: X_INTRODUCED_18_;
var 0..336: X_INTRODUCED_19_;
var 0..336: X_INTRODUCED_20_;
var 0..336: X_INTRODUCED_21_;
var 0..336: X_INTRODUCED_22_;
var 0..336: X_INTRODUCED_23_;
var 0..336: X_INTRODUCED_24_;
var 0..336: X_INTRODUCED_25_;
var 0..336: X_INTRODUCED_26_;
var 0..336: X_INTRODUCED_27_;
var 0..336: X_INTRODUCED_28_;
var 0..336: X_INTRODUCED_29_;
var 0..336: X_INTRODUCED_30_;
var 0..336: X_INTRODUCED_31_;
var 0..336: X_INTRODUCED_32_;
var 0..336: X_INTRODUCED_33_;
var 0..336: X_INTRODUCED_34_;
var 0..336: X_INTRODUCED_35_;
var 0..336: X_INTRODUCED_36_;
var 0..336: X_INTRODUCED_37_;
var 0..336: X_INTRODUCED_38_;
var 0..336: X_INTRODUCED_39_;
var 0..336: X_INTRODUCED_40_;
var 0..336: X_INTRODUCED_41_;
var 0..336: X_INTRODUCED_42_;
var 0..336: X_INTRODUCED_43_;
var 0..336: X_INTRODUCED_44_;
var 0..336: X_INTRODUCED_45_;
var 0..336: X_INTRODUCED_46_;
var 0..336: X_INTRODUCED_47_;
var 0..336: X_INTRODUCED_48_;
var 0..336: X_INTRODUCED_49_;
var 0..336: X_INTRODUCED_50_;
var 0..336: X_INTRODUCED_51_;
var 0..336: X_INTRODUCED_52_;
var 0..336: X_INTRODUCED_53_;
var 0..336: X_INTRODUCED_54_;
var 0..336: X_INTRODUCED_55_;
var 0..336: X_INTRODUCED_56_;
var 0..336: X_INTRODUCED_57_;
var 0..336: X_INTRODUCED_58_;
var 0..336: X_INTRODUCED_59_;
var 0..336: X_INTRODUCED_60_;
var 0..336: X_INTRODUCED_61_;
var 0..336: X_INTRODUCED_62_;
var 0..336: X_INTRODUCED_63_;
var 0..336: X_INTRODUCED_64_;
var 0..336: X_INTRODUCED_65_;
var 0..336: X_INTRODUCED_66_;
var 0..336: X_INTRODUCED_67_;
var 0..336: X_INTRODUCED_68_;
var 0..336: X_INTRODUCED_69_;
var 0..336: X_INTRODUCED_70_;
var 0..336: X_INTRODUCED_71_;
var 0..336: X_INTRODUCED_72_;
var 0..336: X_INTRODUCED_73_;
var 0..336: X_INTRODUCED_74_;
var 0..336: X_INTRODUCED_75_;
var 0..336: X_INTRODUCED_76_;
var 0..336: X_INTRODUCED_77_;
var 0..336: X_INTRODUCED_78_;
var 0..336: X_INTRODUCED_79_;
var 0..336: X_INTRODUCED_80_;
var 0..336: X_INTRODUCED_81_;
var 0..336: X_INTRODUCED_82_;
var 0..336: X_INTRODUCED_83_;
var 0..336: X_INTRODUCED_84_;
var 0..336: X_INTRODUCED_85_;
var 0..336: X_INTRODUCED_86_;
var 0..336: X_INTRODUCED_87_;
var 0..336: X_INTRODUCED_88_;
var 0..336: X_INTRODUCED_89_;
var 0..336: X_INTRODUCED_90_;
var 0..336: X_INTRODUCED_91_;
var 0..336: X_INTRODUCED_92_;
var 0..336: X_INTRODUCED_93_;
var 0..336: X_INTRODUCED_94_;
var 0..336: X_INTRODUCED_95_;
var 0..336: X_INTRODUCED_96_;
var 0..336: X_INTRODUCED_97_;
var 0..336: X_INTRODUCED_98_;
var 0..336: X_INTRODUCED_99_;
var 0..336: X_INTRODUCED_100_;
var 0..336: X_INTRODUCED_101_;
var 0..336: X_INTRODUCED_102_;
var 0..336: X_INTRODUCED_103_;
var 0..336: X_INTRODUCED_104_;
var 0..336: X_INTRODUCED_105_;
var 0..336: X_INTRODUCED_106_;
var 0..336: X_INTRODUCED_107_;
var 0..336: X_INTRODUCED_108_;
var 0..336: X_INTRODUCED_109_;
var 0..336: X_INTRODUCED_110_;
var 0..336: X_INTRODUCED_111_;
var 0..336: X_INTRODUCED_112_;
var 0..336: X_INTRODUCED_113_;
var 0..336: X_INTRODUCED_114_;
var 0..336: X_INTRODUCED_115_;
var 0..336: X_INTRODUCED_116_;
var 0..337: Objective:: output_var;
array [1..101] of var int: Start:: output_array([1..101]) = [X_INTRODUCED_16_,X_INTRODUCED_17_,X_INTRODUCED_18_,X_INTRODUCED_19_,X_INTRODUCED_20_,X_INTRODUCED_21_,X_INTRODUCED_22_,X_INTRODUCED_23_,X_INTRODUCED_24_,X_INTRODUCED_25_,X_INTRODUCED_26_,X_INTRODUCED_27_,X_INTRODUCED_28_,X_INTRODUCED_29_,X_INTRODUCED_30_,X_INTRODUCED_31_,X_INTRODUCED_32_,X_INTRODUCED_33_,X_INTRODUCED_34_,X_INTRODUCED_35_,X_INTRODUCED_36_,X_INTRODUCED_37_,X_INTRODUCED_38_,X_INTRODUCED_39_,X_INTRODUCED_40_,X_INTRODUCED_41_,X_INTRODUCED_42_,X_INTRODUCED_43_,X_INTRODUCED_44_,X_INTRODUCED_45_,X_INTRODUCED_46_,X_INTRODUCED_47_,X_INTRODUCED_48_,X_INTRODUCED_49_,X_INTRODUCED_50_,X_INTRODUCED_51_,X_INTRODUCED_52_,X_INTRODUCED_53_,X_INTRODUCED_54_,X_INTRODUCED_55_,X_INTRODUCED_56_,X_INTRODUCED_57_,X_INTRODUCED_58_,X_INTRODUCED_59_,X_INTRODUCED_60_,X_INTRODUCED_61_,X_INTRODUCED_62_,X_INTRODUCED_63_,X_INTRODUCED_64_,X_INTRODUCED_65_,X_INTRODUCED_66_,X_INTRODUCED_67_,X_INTRODUCED_68_,X_INTRODUCED_69_,X_INTRODUCED_70_,X_INTRODUCED_71_,X_INTRODUCED_72_,X_INTRODUCED_73_,X_INTRODUCED_74_,X_INTRODUCED_75_,X_INTRODUCED_76_,X_INTRODUCED_77_,X_INTRODUCED_78_,X_INTRODUCED_79_,X_INTRODUCED_80_,X_INTRODUCED_81_,X_INTRODUCED_82_,X_INTRODUCED_83_,X_INTRODUCED_84_,X_INTRODUCED_85_,X_INTRODUCED_86_,X_INTRODUCED_87_,X_INTRODUCED_88_,X_INTRODUCED_89_,X_INTRODUCED_90_,X_INTRODUCED_91_,X_INTRODUCED_92_,X_INTRODUCED_93_,X_INTRODUCED_94_,X_INTRODUCED_95_,X_INTRODUCED_96_,X_INTRODUCED_97_,X_INTRODUCED_98_,X_INTRODUCED_99_,X_INTRODUCED_100_,X_INTRODUCED_101_,X_INTRODUCED_102_,X_INTRODUCED_103_,X_INTRODUCED_104_,X_INTRODUCED_105_,X_INTRODUCED_106_,X_INTRODUCED_107_,X_INTRODUCED_108_,X_INTRODUCED_109_,X_INTRODUCED_110_,X_INTRODUCED_111_,X_INTRODUCED_112_,X_INTRODUCED_113_,X_INTRODUCED_114_,X_INTRODUCED_115_,X_INTRODUCED_116_];
array [1..6] of var int: X_INTRODUCED_131_ ::var_is_introduced  = [X_INTRODUCED_17_,X_INTRODUCED_18_,X_INTRODUCED_20_,X_INTRODUCED_23_,X_INTRODUCED_25_,X_INTRODUCED_27_];
array [1..7] of var int: X_INTRODUCED_134_ ::var_is_introduced  = [X_INTRODUCED_18_,X_INTRODUCED_19_,X_INTRODUCED_24_,X_INTRODUCED_26_,X_INTRODUCED_27_,X_INTRODUCED_28_,X_INTRODUCED_29_];
array [1..8] of var int: X_INTRODUCED_137_ ::var_is_introduced  = [X_INTRODUCED_16_,X_INTRODUCED_17_,X_INTRODUCED_19_,X_INTRODUCED_20_,X_INTRODUCED_22_,X_INTRODUCED_25_,X_INTRODUCED_26_,X_INTRODUCED_27_];
array [1..5] of var int: X_INTRODUCED_140_ ::var_is_introduced  = [X_INTRODUCED_16_,X_INTRODUCED_17_,X_INTRODUCED_23_,X_INTRODUCED_27_,X_INTRODUCED_29_];
array [1..6] of var int: X_INTRODUCED_143_ ::var_is_introduced  = [X_INTRODUCED_17_,X_INTRODUCED_21_,X_INTRODUCED_24_,X_INTRODUCED_27_,X_INTRODUCED_28_,X_INTRODUCED_29_];
array [1..15] of var int: X_INTRODUCED_148_ ::var_is_introduced  = [X_INTRODUCED_16_,X_INTRODUCED_17_,X_INTRODUCED_18_,X_INTRODUCED_19_,X_INTRODUCED_20_,X_INTRODUCED_21_,X_INTRODUCED_22_,X_INTRODUCED_23_,X_INTRODUCED_24_,X_INTRODUCED_25_,X_INTRODUCED_26_,X_INTRODUCED_27_,X_INTRODUCED_28_,X_INTRODUCED_29_,Objective];
constraint int_lin_le(X_INTRODUCED_120_,[X_INTRODUCED_16_,X_INTRODUCED_20_],-4);
constraint int_lin_le(X_INTRODUCED_120_,[X_INTRODUCED_17_,X_INTRODUCED_22_],-1);
constraint int_lin_le(X_INTRODUCED_120_,[X_INTRODUCED_18_,X_INTRODUCED_19_],-6);
constraint int_lin_le(X_INTRODUCED_120_,[X_INTRODUCED_18_,X_INTRODUCED_21_],-6);
constraint int_lin_le(X_INTRODUCED_120_,[X_INTRODUCED_19_,X_INTRODUCED_23_],-1);
constraint int_lin_le(X_INTRODUCED_120_,[X_INTRODUCED_20_,X_INTRODUCED_26_],-8);
constraint int_lin_le(X_INTRODUCED_120_,[X_INTRODUCED_21_,X_INTRODUCED_24_],-6);
constraint int_lin_le(X_INTRODUCED_120_,[X_INTRODUCED_21_,X_INTRODUCED_25_],-6);
constraint int_lin_le(X_INTRODUCED_120_,[X_INTRODUCED_23_,X_INTRODUCED_29_],-2);
constraint int_lin_le(X_INTRODUCED_120_,[X_INTRODUCED_25_,X_INTRODUCED_27_],-3);
constraint int_lin_le(X_INTRODUCED_120_,[X_INTRODUCED_26_,X_INTRODUCED_28_],-9);
constraint pumpkin_cumulative(X_INTRODUCED_131_,[1,6,8,2,3,1],[3,3,2,7,8,10],10);
constraint pumpkin_cumulative(X_INTRODUCED_134_,[6,1,5,9,1,1,3],[8,3,2,3,8,1,9],10);
constraint pumpkin_cumulative(X_INTRODUCED_137_,[4,1,1,8,1,3,9,1],[4,8,3,5,5,8,1,2],11);
constraint pumpkin_cumulative(X_INTRODUCED_140_,[4,1,2,1,3],[10,9,9,2,6],10);
constraint pumpkin_disjunctive_strict(X_INTRODUCED_143_,[1,6,5,1,1,3]);
constraint int_lin_le(X_INTRODUCED_120_,[X_INTRODUCED_22_,Objective],-1);
constraint int_lin_le(X_INTRODUCED_120_,[X_INTRODUCED_24_,Objective],-5);
constraint int_lin_le(X_INTRODUCED_120_,[X_INTRODUCED_28_,Objective],-1);
solve :: int_search(X_INTRODUCED_148_,smallest,indomain_min,complete) minimize Objective;
